words_hard_train/5817.qaiger
aag 91 16 0 1 75
2
4
8
12
16
20
24
38
44
58
72
84
100
114
118
152
183
6 3 5
10 6 9
14 10 13
18 14 17
22 18 21
26 19 24
28 27 20
30 26 21
32 29 31
34 33 19
36 23 35
40 36 39
42 23 24
46 43 44
48 42 45
50 47 49
52 50 35
54 51 34
56 53 55
60 56 59
62 41 61
64 11 25
66 65 12
68 64 13
70 67 69
74 70 73
76 15 25
78 77 17
80 76 16
82 79 81
86 83 85
88 75 87
90 71 72
92 7 25
94 93 8
96 92 9
98 95 97
102 99 100
104 91 103
106 2 24
108 107 4
110 106 5
112 109 111
116 115 2
120 116 119
122 112 121
124 117 118
126 123 125
128 98 101
130 127 129
132 130 7
134 104 133
136 88 135
138 37 38
140 137 139
142 82 84
144 140 143
146 62 145
148 57 58
150 147 149
154 150 152
156 22 24
158 156 45
160 51 33
162 159 161
164 51 18
166 164 20
168 163 166
170 154 169
172 151 153
174 168 172
176 171 175
178 162 167
180 178 173
182 176 181
i0 1 x2[0]
i1 1 x2[1]
i2 1 x2[2]
i3 1 x2[3]
i4 1 x2[4]
i5 1 x2[5]
i6 1 x2[7]
i7 2 y1[5]
i8 1 x2[6]
i9 2 y1[6]
i10 2 y1[3]
i11 2 y1[4]
i12 2 y1[2]
i13 2 y1[0]
i14 2 y1[1]
i15 2 y1[7]
o0 bv[0]
c
simplified
  >
    add
      subtract
        1
        -31
      abs
        1 x2
    2 y1
