words_hard_train/5817.qaiger.qdimacs
p cnf 91 226
a 1 2 4 6 8 10 12 22 0
e 3 5 7 9 11 13 14 15 16 17 18 19 20 21 23 24 25 26 27 28 29 30 31 32 33 34 35 36 37 38 39 40 41 42 43 44 45 46 47 48 49 50 51 52 53 54 55 56 57 58 59 60 61 62 63 64 65 66 67 68 69 70 71 72 73 74 75 76 77 78 79 80 81 82 83 84 85 86 87 88 89 90 91 0
1 2 3 0
-1 -3 0
-2 -3 0
-3 4 5 0
3 -5 0
-4 -5 0
-5 6 7 0
5 -7 0
-6 -7 0
-7 8 9 0
7 -9 0
-8 -9 0
-9 10 11 0
9 -11 0
-10 -11 0
9 -12 13 0
-9 -13 0
12 -13 0
13 -10 14 0
-13 -14 0
10 -14 0
-13 10 15 0
13 -15 0
-10 -15 0
14 15 16 0
-14 -16 0
-15 -16 0
16 9 17 0
-16 -17 0
-9 -17 0
11 17 18 0
-11 -18 0
-17 -18 0
-18 19 20 0
18 -20 0
-19 -20 0
11 -12 21 0
-11 -21 0
12 -21 0
21 -22 23 0
-21 -23 0
22 -23 0
-21 22 24 0
21 -24 0
-22 -24 0
23 24 25 0
-23 -25 0
-24 -25 0
-25 17 26 0
25 -26 0
-17 -26 0
25 -17 27 0
-25 -27 0
17 -27 0
26 27 28 0
-26 -28 0
-27 -28 0
-28 29 30 0
28 -30 0
-29 -30 0
20 30 31 0
-20 -31 0
-30 -31 0
5 12 32 0
-5 -32 0
-12 -32 0
32 -6 33 0
-32 -33 0
6 -33 0
-32 6 34 0
32 -34 0
-6 -34 0
33 34 35 0
-33 -35 0
-34 -35 0
-35 36 37 0
35 -37 0
-36 -37 0
7 12 38 0
-7 -38 0
-12 -38 0
38 8 39 0
-38 -39 0
-8 -39 0
-38 -8 40 0
38 -40 0
8 -40 0
39 40 41 0
-39 -41 0
-40 -41 0
41 42 43 0
-41 -43 0
-42 -43 0
37 43 44 0
-37 -44 0
-43 -44 0
35 -36 45 0
-35 -45 0
36 -45 0
3 12 46 0
-3 -46 0
-12 -46 0
46 -4 47 0
-46 -47 0
4 -47 0
-46 4 48 0
46 -48 0
-4 -48 0
47 48 49 0
-47 -49 0
-48 -49 0
49 -50 51 0
-49 -51 0
50 -51 0
45 51 52 0
-45 -52 0
-51 -52 0
-1 -12 53 0
1 -53 0
12 -53 0
53 -2 54 0
-53 -54 0
2 -54 0
-53 2 55 0
53 -55 0
-2 -55 0
54 55 56 0
-54 -56 0
-55 -56 0
57 -1 58 0
-57 -58 0
1 -58 0
-58 59 60 0
58 -60 0
-59 -60 0
-56 60 61 0
56 -61 0
-60 -61 0
58 -59 62 0
-58 -62 0
59 -62 0
61 62 63 0
-61 -63 0
-62 -63 0
-49 50 64 0
49 -64 0
-50 -64 0
63 64 65 0
-63 -65 0
-64 -65 0
-65 3 66 0
65 -66 0
-3 -66 0
-52 66 67 0
52 -67 0
-66 -67 0
-44 67 68 0
44 -68 0
-67 -68 0
18 -19 69 0
-18 -69 0
19 -69 0
68 69 70 0
-68 -70 0
-69 -70 0
-41 -42 71 0
41 -71 0
42 -71 0
-70 71 72 0
70 -72 0
-71 -72 0
-31 72 73 0
31 -73 0
-72 -73 0
28 -29 74 0
-28 -74 0
29 -74 0
73 74 75 0
-73 -75 0
-74 -75 0
-75 -76 77 0
75 -77 0
76 -77 0
-11 -12 78 0
11 -78 0
12 -78 0
-78 22 79 0
78 -79 0
-22 -79 0
25 16 80 0
-25 -80 0
-16 -80 0
79 80 81 0
-79 -81 0
-80 -81 0
25 -9 82 0
-25 -82 0
9 -82 0
-82 -10 83 0
82 -83 0
10 -83 0
81 -83 84 0
-81 -84 0
83 -84 0
-77 84 85 0
77 -85 0
-84 -85 0
75 76 86 0
-75 -86 0
-76 -86 0
-84 -86 87 0
84 -87 0
86 -87 0
85 87 88 0
-85 -88 0
-87 -88 0
-81 83 89 0
81 -89 0
-83 -89 0
-89 86 90 0
89 -90 0
-86 -90 0
-88 90 91 0
88 -91 0
-90 -91 0
-91 0
